qbf_easy_train/easy_5349_SAT.qdimacs
p cnf 21 49
a 17 11 15 0
e 1 2 3 4 5 6 7 8 9 10 12 13 14 16 18 19 20 21 0
-1 2 -3 0
1 -2 -3 0
-1 -2 3 0
1 2 3 0
3 -4 -5 0
-3 4 -5 0
3 4 5 0
-3 -4 5 0
-7 5 0
-7 -6 0
-5 6 7 0
-3 -2 -8 0
3 2 -8 0
-3 2 8 0
3 -2 8 0
-10 -9 0
-10 3 0
9 -3 10 0
13 -11 0
13 12 0
11 -12 -13 0
14 4 0
14 -12 0
-4 12 -14 0
15 13 0
15 -14 0
-13 14 -15 0
-17 -16 0
-17 6 0
16 -6 17 0
-15 17 -18 0
15 -17 -18 0
-15 -17 18 0
15 17 18 0
-19 10 0
-19 18 0
-10 -18 19 0
-20 8 0
-20 -19 0
-8 19 20 0
-7 -20 -21 0
7 20 -21 0
-7 20 21 0
7 -20 21 0
-21 -1 14 -9 4 15 0
-19 -17 7 -14 -1 4 0
-10 -7 18 0
-19 -8 17 5 -7 0
21 0
