sat_easy_train/easy_5349_SAT.dimacs
p cnf 128 425
-4 -2 0
-4 3 0
2 -3 4 0
5 1 0
5 4 0
-1 -4 -5 0
-5 6 -7 0
5 -6 -7 0
-5 -6 7 0
5 6 7 0
9 -6 0
9 -8 0
6 8 -9 0
-10 -6 0
-10 -3 0
6 3 10 0
-4 -10 -11 0
4 10 -11 0
-4 10 11 0
4 -10 11 0
-13 11 0
-13 -12 0
-11 12 13 0
-14 9 0
-14 -13 0
-9 13 14 0
-17 -15 0
-17 -16 0
15 16 17 0
18 -14 0
18 17 0
14 -17 -18 0
-20 -9 0
-20 -19 0
9 19 20 0
-21 -18 0
-21 -20 0
18 20 21 0
22 -23 -24 0
-22 23 -24 0
22 23 24 0
-22 -23 24 0
-25 -21 0
-25 24 0
21 -24 25 0
7 25 -26 0
-7 -25 -26 0
7 -25 26 0
-7 25 26 0
-27 20 0
-27 -5 0
-20 5 27 0
10 -27 -28 0
-10 27 -28 0
10 27 28 0
-10 -27 28 0
30 29 0
30 3 0
-29 -3 -30 0
31 30 0
31 -29 0
-30 29 -31 0
-32 -3 0
-32 -16 0
3 16 32 0
33 -31 0
33 32 0
31 -32 -33 0
-17 -33 -34 0
17 33 -34 0
-17 33 34 0
17 -33 34 0
35 -8 0
35 -6 0
8 6 -35 0
-36 -34 0
-36 35 0
34 -35 36 0
-36 27 -37 0
36 -27 -37 0
-36 -27 37 0
36 27 37 0
-13 19 -38 0
13 -19 -38 0
-13 -19 38 0
13 19 38 0
-39 37 0
-39 -38 0
-37 38 39 0
-40 28 0
-40 39 0
-28 -39 40 0
-26 -40 -41 0
26 40 -41 0
-26 40 41 0
26 -40 41 0
-36 32 -42 0
36 -32 -42 0
-36 -32 42 0
36 32 42 0
42 43 -44 0
-42 -43 -44 0
42 -43 44 0
-42 43 44 0
-45 -23 0
-45 -12 0
23 12 45 0
-45 18 -46 0
45 -18 -46 0
-45 -18 46 0
45 18 46 0
-47 23 0
-47 -23 0
-48 -46 0
-48 -47 0
46 47 48 0
-31 20 -49 0
31 -20 -49 0
-31 -20 49 0
31 20 49 0
50 48 0
50 49 0
-48 -49 -50 0
-30 -51 -52 0
30 51 -52 0
-30 51 52 0
30 -51 52 0
53 10 0
53 12 0
-10 -12 -53 0
54 -52 0
54 -53 0
52 53 -54 0
-55 -54 0
-55 9 0
54 -9 55 0
57 55 0
57 -56 0
-55 56 -57 0
50 57 -58 0
-50 -57 -58 0
50 -57 58 0
-50 57 58 0
-59 44 0
-59 58 0
-44 -58 59 0
-60 -3 0
-60 54 0
3 -54 60 0
61 51 0
61 43 0
-51 -43 -61 0
-62 -61 0
-62 -8 0
61 8 62 0
63 -60 0
63 -62 0
60 62 -63 0
64 -15 0
64 12 0
15 -12 -64 0
-31 -29 -65 0
31 29 -65 0
-31 29 65 0
31 -29 65 0
66 65 0
66 -29 0
-65 29 -66 0
-14 -53 -67 0
14 53 -67 0
-14 53 67 0
14 -53 67 0
-68 -10 0
-68 67 0
10 -67 68 0
-70 69 0
-70 34 0
-69 -34 70 0
70 2 -71 0
-70 -2 -71 0
70 -2 71 0
-70 2 71 0
-72 68 0
-72 -71 0
-68 71 72 0
-66 -72 -73 0
66 72 -73 0
-66 72 73 0
66 -72 73 0
74 -1 0
74 35 0
1 -35 -74 0
75 -16 0
75 -33 0
16 33 -75 0
-18 -75 -76 0
18 75 -76 0
-18 75 76 0
18 -75 76 0
-77 74 0
-77 -76 0
-74 76 77 0
-78 -73 0
-78 77 0
73 -77 78 0
-79 -64 0
-79 78 0
64 -78 79 0
-63 79 -80 0
63 -79 -80 0
-63 -79 80 0
63 79 80 0
-81 -59 0
-81 -80 0
59 80 81 0
-41 81 -82 0
41 -81 -82 0
-41 -81 82 0
41 81 82 0
-83 19 0
-83 -52 0
-19 52 83 0
84 75 0
84 -83 0
-75 83 -84 0
-85 -8 0
-85 51 0
8 -51 85 0
86 52 0
86 -16 0
-52 16 -86 0
87 85 0
87 -86 0
-85 86 -87 0
-88 87 0
-88 -13 0
-87 13 88 0
89 -84 0
89 -88 0
84 88 -89 0
90 -43 0
90 -10 0
43 10 -90 0
53 87 -91 0
-53 -87 -91 0
53 -87 91 0
-53 87 91 0
90 -91 -92 0
-90 91 -92 0
90 91 92 0
-90 -91 92 0
93 65 0
93 -61 0
-65 61 -93 0
36 17 -94 0
-36 -17 -94 0
36 -17 94 0
-36 17 94 0
-95 93 0
-95 -94 0
-93 94 95 0
-96 92 0
-96 -95 0
-92 95 96 0
-97 89 0
-97 -96 0
-89 96 97 0
-3 -30 -98 0
3 30 -98 0
-3 30 98 0
3 -30 98 0
-61 30 -99 0
61 -30 -99 0
-61 -30 99 0
61 30 99 0
100 98 0
100 99 0
-98 -99 -100 0
-101 -90 0
-101 100 0
90 -100 101 0
102 -15 0
102 31 0
15 -31 -102 0
102 33 -103 0
-102 -33 -103 0
102 -33 103 0
-102 33 103 0
104 -101 0
104 103 0
101 -103 -104 0
105 17 0
105 13 0
-17 -13 -105 0
106 2 0
106 99 0
-2 -99 -106 0
107 -105 0
107 106 0
105 -106 -107 0
-108 87 0
-108 -61 0
-87 61 108 0
-109 30 0
-109 -108 0
-30 108 109 0
-110 29 0
-110 -8 0
-29 8 110 0
-111 -10 0
-111 -110 0
10 110 111 0
-109 -111 -112 0
109 111 -112 0
-109 111 112 0
109 -111 112 0
-113 -107 0
-113 112 0
107 -112 113 0
114 -10 0
114 52 0
10 -52 -114 0
115 -114 0
115 -53 0
114 53 -115 0
-116 22 0
-116 99 0
-22 -99 116 0
-115 116 -117 0
115 -116 -117 0
-115 -116 117 0
115 116 117 0
118 70 0
118 -17 0
-70 17 -118 0
-117 -118 -119 0
117 118 -119 0
-117 118 119 0
117 -118 119 0
-113 119 -120 0
113 -119 -120 0
-113 -119 120 0
113 119 120 0
121 104 0
121 120 0
-104 -120 -121 0
122 97 0
122 -121 0
-97 121 -122 0
-123 82 0
-123 122 0
-82 -122 123 0
-124 -90 0
-124 12 0
90 -12 124 0
13 -90 -125 0
-13 90 -125 0
13 90 125 0
-13 -90 125 0
-126 125 0
-126 -125 0
124 126 -127 0
-124 -126 -127 0
124 -126 127 0
-124 126 127 0
123 -127 -128 0
-123 127 -128 0
123 127 128 0
-123 -127 128 0
7 50 -75 -25 11 0
-38 -113 0
-86 -122 0
74 -91 -50 -73 0
-45 43 -3 0
87 -67 83 40 92 -16 0
99 73 -113 0
-107 -30 63 -102 -15 65 0
45 -74 79 71 0
23 -20 9 0
19 101 99 -40 76 -46 0
-46 121 105 68 30 128 0
100 -56 -112 -57 118 0
-30 -60 46 34 0
9 99 124 -28 -120 0
-51 -103 -124 0
72 38 17 10 124 0
-110 122 -42 55 75 -34 0
24 36 0
-56 46 23 0
-77 -12 -106 -89 0
-33 113 -47 83 57 -53 0
-85 29 103 -83 0
-92 7 -78 -98 -97 0
-1 -6 41 0
79 71 -17 0
-22 116 0
25 -1 0
-57 -105 -90 76 33 -10 0
-30 43 -57 -123 114 -101 0
-80 -60 12 102 0
114 -126 8 -7 -88 -108 0
-95 -120 -112 0
-10 -53 -70 99 -22 0
-2 104 -31 70 6 0
-91 43 116 0
113 -87 16 9 46 122 0
-40 75 -17 -57 124 -82 0
-15 118 -98 -123 0
-66 18 -33 0
108 -97 39 0
66 101 55 113 -117 0
19 83 -31 39 0
-68 -112 30 122 128 0
-105 54 104 -18 24 109 0
66 92 -108 -16 71 115 0
84 25 -28 -5 56 124 0
22 117 43 0
-88 -100 -12 51 -47 98 0
-44 -126 -18 -47 0
41 67 71 -75 39 0
101 15 118 0
-108 22 0
-61 1 -76 0
-104 -79 -61 0
128 0
